40
10 37
10 24
10 8
37 9
37 0
16 26
16 35
16 21
26 20
26 38
24 27
24 13
27 8
27 23
3 4
3 19
3 18
4 18
4 1
2 36
2 1
2 7
36 17
36 7
35 6
35 19
7 29
29 14
29 5
12 13
12 1
12 39
13 5
20 15
20 31
5 34
19 31
18 39
0 23
0 15
23 17
17 33
33 25
33 22
8 14
34 38
34 28
11 32
11 30
11 22
32 28
32 21
30 39
30 25
15 14
38 21
6 22
6 31
9 28
9 25
